Geometry = GenFormat {
96  C
 O H
     1  1  -1.3100584000E+01  -1.7119897000E+01  -6.9372805000E+00
     2  2  -1.4936471700E+01  -1.7261615100E+01  -6.9338223000E+00
     3  2  -1.2876065700E+01  -1.7213179600E+01  -8.7850546000E+00
     4  1   8.6879188000E+00  -2.4427600000E+00  -1.6517450500E+01
     5  2   8.0359634000E+00  -8.9110600000E-01  -1.7048913200E+01
     6  2   9.7085599000E+00  -2.7970836000E+00  -1.7875279100E+01
     7  1  -1.0779263500E+01   1.7430957600E+01   1.6288474000E+00
     8  2  -1.1866952000E+01   1.7869774300E+01   1.9414850000E-01
     9  2  -1.1141070400E+01   1.5743462200E+01   2.1585376000E+00
    10  1   1.5383278500E+01   8.0998210000E+00  -5.5036210000E+00
    11  2   1.6838339200E+01   9.1497339000E+00  -5.7845098000E+00
    12  2   1.4133187000E+01   9.3265178000E+00  -4.7931785000E+00
    13  1  -1.6971408000E+01   1.3629915200E+01  -1.8741565000E+00
    14  2  -1.8285682200E+01   1.4932068600E+01  -2.1258869000E+00
    15  2  -1.6522830500E+01   1.3096691200E+01  -3.5079192000E+00
    16  1   1.0160964100E+01  -3.7810412000E+00   3.8968965000E+00
    17  2   1.0695265200E+01  -3.1843225000E+00   2.2280795000E+00
    18  2   1.1504823800E+01  -3.6418251000E+00   5.0290314000E+00
    19  1  -1.0613179300E+01  -1.2578301500E+01  -1.4190370100E+01
    20  2  -1.0189691700E+01  -1.1917596600E+01  -1.5780627400E+01
    21  2  -9.5999082000E+00  -1.1567884000E+01  -1.2957550700E+01
    22  1   1.6896295200E+01   1.4615086000E+01   1.6054214400E+01
    23  2   1.6865863000E+01   1.3144879200E+01   1.7276593100E+01
    24  2   1.5958955200E+01   1.5902497700E+01   1.6944740200E+01
    25  1   3.8092133000E+00   1.0205368800E+01   2.5158848000E+00
    26  2   5.3627570000E+00   1.1022297400E+01   2.8395949000E+00
    27  2   3.3553011000E+00   9.8283685000E+00   4.1945284000E+00
    28  1   1.4718223400E+01  -6.7349286000E+00  -6.9546282000E+00
    29  2   1.3178096800E+01  -6.9604674000E+00  -5.9361415000E+00
    30  2   1.6248334600E+01  -6.8382211000E+00  -6.0017150000E+00
    31  1   1.3786479000E+01  -1.0050207200E+01  -3.7439440000E-01
    32  2   1.4786276300E+01  -1.1162499900E+01  -1.2756425000E+00
    33  2   1.5081961700E+01  -8.9701721000E+00   2.9026000000E-01
    34  1  -7.4393807000E+00  -6.0243350000E+00   1.3657898200E+01
    35  2  -8.1531869000E+00  -4.4453933000E+00   1.4583863900E+01
    36  2  -7.1822646000E+00  -7.1499503000E+00   1.5112987200E+01
    37  1  -1.3111468800E+01  -1.8500625000E+00  -5.7229426000E+00
    38  2  -1.2840860100E+01  -2.2859845000E+00  -7.4698431000E+00
    39  2  -1.3367299900E+01  -1.5554300000E-02  -5.7218654000E+00
    40  1   7.4061026000E+00   2.5514116000E+00  -1.7465395200E+01
    41  2   6.4166421000E+00   4.2009535000E+00  -1.7283150400E+01
    42  2   9.2349983000E+00   2.8993102000E+00  -1.7399640700E+01
    43  1  -4.8570701000E+00  -1.4144393100E+01  -6.7320563000E+00
    44  2  -3.4902124000E+00  -1.5139352700E+01  -7.2493498000E+00
    45  2  -5.1040006000E+00  -1.4835125700E+01  -5.1071565000E+00
    46  1  -1.3630841100E+01  -1.0832081300E+01   2.7110935000E+00
    47  2  -1.2133233300E+01  -1.0723119700E+01   1.7535693000E+00
    48  2  -1.3153250700E+01  -1.0597056100E+01   4.4131697000E+00
    49  1  -1.1856464000E+01  -4.9153493000E+00   2.0256899000E+00
    50  2  -1.0658094300E+01  -5.5296047000E+00   3.3711748000E+00
    51  2  -1.3514490700E+01  -5.3746472000E+00   2.5124833000E+00
    52  1  -9.3904661000E+00   4.7136361000E+00  -1.6530478300E+01
    53  2  -1.0897919400E+01   5.4426924000E+00  -1.7285612800E+01
    54  2  -9.5265075000E+00   2.9879383000E+00  -1.6760646900E+01
    55  1  -8.5078356000E+00  -1.5424152000E+00   1.5332142500E+01
    56  2  -7.9269338000E+00  -8.9469270000E-01   1.3763481000E+01
    57  2  -1.0065914600E+01  -6.4043000000E-01   1.5370050400E+01
    58  1   2.6165354000E+00  -5.2555200000E-02  -2.5363543000E+00
    59  2   4.3424977000E+00   3.1953400000E-02  -3.0966959000E+00
    60  2   2.7210939000E+00   1.2613524000E+00  -1.3073143000E+00
    61  1  -1.3380683000E+01   6.0878449000E+00  -2.7551657000E+00
    62  2  -1.3756360500E+01   4.9381356000E+00  -4.2193065000E+00
    63  2  -1.2005340400E+01   5.5258403000E+00  -1.7526094000E+00
    64  1  -1.6024938800E+01   6.3582646000E+00   1.2265625000E+00
    65  2  -1.5081470400E+01   6.2437473000E+00  -3.7343070000E-01
    66  2  -1.6867482500E+01   7.9616971000E+00   9.1876400000E-01
    67  1  -1.3240276400E+01  -1.7002615000E+01   6.5872994000E+00
    68  2  -1.1889878200E+01  -1.7635306600E+01   5.6161692000E+00
    69  2  -1.3871633800E+01  -1.8594094900E+01   7.1918228000E+00
    70  1   6.4414088000E+00   9.5333823000E+00   1.1401565400E+01
    71  2   7.0971437000E+00   1.0446686800E+01   1.2877630300E+01
    72  2   6.0288816000E+00   1.0792884600E+01   1.0114284000E+01
    73  1  -1.3186661000E+01   8.1510477000E+00   1.6640809900E+01
    74  2  -1.4902966900E+01   8.5350400000E+00   1.7104280300E+01
    75  2  -1.2240588600E+01   9.0686986000E+00   1.7883866000E+01
    76  1  -9.7584902000E+00  -5.2289871000E+00  -2.3917147000E+00
    77  2  -1.0417966800E+01  -4.6633921000E+00  -7.5763080000E-01
    78  2  -1.1044524300E+01  -5.0547922000E+00  -3.5967552000E+00
    79  1  -5.6392239000E+00  -2.6540465000E+00  -1.3698076000E+00
    80  2  -4.4375472000E+00  -3.2860086000E+00  -2.5906651000E+00
    81  2  -7.1619651000E+00  -3.4540053000E+00  -2.0127868000E+00
    82  1  -6.8174719000E+00   1.7243842200E+01   1.1078611200E+01
    83  2  -8.3908766000E+00   1.7987638400E+01   1.0500733000E+01
    84  2  -7.2607071000E+00   1.5597890900E+01   1.1554255200E+01
    85  1  -3.5255503000E+00  -1.5814839000E+01   6.9835750000E+00
    86  2  -4.0115689000E+00  -1.6875920200E+01   8.3623191000E+00
    87  2  -1.7525716000E+00  -1.5616417800E+01   7.3042615000E+00
    88  1  -1.5777639800E+01   3.2232092000E+00   1.1594506400E+01
    89  2  -1.4386618100E+01   2.0780353000E+00   1.0960503300E+01
    90  2  -1.5529826800E+01   4.7140141000E+00   1.0477678300E+01
    91  1  -2.1031686000E+00  -9.1112251000E+00  -7.2029760000E+00
    92  2  -1.5887852000E+00  -9.0052114000E+00  -8.8837172000E+00
    93  2  -3.5856587000E+00  -1.0256399000E+01  -7.1325459000E+00
    94  1   4.8199181000E+00   7.1504378000E+00  -8.2296641000E+00
    95  2   5.2620762000E+00   8.7060602000E+00  -7.2601213000E+00
    96  2   3.3939498000E+00   6.5298518000E+00  -7.4024743000E+00
}

Driver = {}

Hamiltonian = DFTB {
  SCC = Yes
  SCCTolerance = 1.0E-8
  MaxSCCIterations = 1000
  Mixer = Anderson {
    MixingParameter = 5.0E-2
    Generations = 8
  }
  MaxAngularMomentum = {
    O = "p"
    H = "s"
  }
  Charge = 0.0
  SpinPolarisation = {}
  Filling = Fermi {
    Temperature [Kelvin] = 1.0E-8
  }
  SlaterKosterFiles = {
    O-O = "O-O.skf"
    O-H = "O-H.skf"
    H-O = "O-H.skf"
    H-H = "H-H.skf"
  }
  ReadInitialCharges = No
}

Options = {
  WriteAutotestTag = Yes
}

InputVersion = 20.1

ElectronDynamics = {
  Steps = __STEPS__
  TimeStep [au] = __DT_AU__
  WriteFrequency = 20
  WriteEnergyAndCharges = Yes
  IonDynamics = Yes
  MovedAtoms = 1:96
  InitialTemperature [Kelvin] = 300.0
  MaxwellLinkSocket = {
    File = "__MXL_SOCKET__"
    MoleculeId = 0
    ResetDipole = Yes
  }
}

Parallel {
  UseOmpThreads = Yes
  Blacs = BlockSize {
    1
  }
}
